Minimize
 obj: 3 x1 + 24 x2 + 14 x3 + 9 x4 + 20 x5 + 19 x6
Subject To
 c1: 110 x1 + 205 x2 + 160 x3 + 160 x4 + 420 x5 + 260 x6  >= 2000 
 c2: 4 x1 + 32 x2 + 13 x3 + 8 x4 + 4 x5 + 14 x6 >= 55 
 c3: 2 x1 + 12 x2 + 54 x3 + 285 x4 + 22 x5 + 80 x6 >= 800
Bounds
 0 <= x1 <= 4
 0 <= x2 <= 3
 0 <= x3 <= 2
 0 <= x4 <= 8
 0 <= x5 <= 2
 0 <= x6 <= 2
End
